Traveling Salesman Problem/TSP_generados/Aleatorio1621103243_6.tsp
NAME: Aleatorio1621103243_6.tsp
COMMENT: Randomly generated scenario
TYPE: TSP
DIMENSION: 6
EDGE_WEIGHT_TYPE: ATT
NODE_COORD_SECTION
1 26.67 9.69
2 37.34 26.53
3 9.66 1.29
4 19.46 35.27
5 7.08 49.67
6 49.48 1.38
