Traveling Salesman Problem/TSP_generados/Aleatorio1621103243_6.opt.tour
NAME: Aleatorio1621103243_6.opt.tour
COMMENT: Optimal solution for Aleatorio1621103243_6 (158.51500394222333)
TYPE: TOUR
DIMENSION: 6
TOUR_SECTION
1 3 5 4 2 6
-1
EOF
